! Solving for graph /home/truongxuanhieu/CPLEX-CP-for-MinSpanLabeling/benchmarks/abp/U-662_bus.mtx.rnd
! Target value is set to 220
! Lower bound is set to 221
! Upper bound is set to 662
! Time limit is set to 1800
! Vertices mode is set to Has hole
! Target value mode is set to Antibandwidth
 ! --------------------------------------------------- CP Optimizer 22.2.0.0 --
 ! Minimization problem - 663 variables, 909 constraints, 1 phase
 ! TimeLimit            = 1800
 ! LogVerbosity         = Terse
 ! Initial process time : 0.01s (0.01s extraction + 0.00s propagation)
 !  . Log search space  : 6211.2 (before), 6211.2 (after)
 !  . Memory usage      : 905.1 kB (before), 905.1 kB (after)
 ! Using parallel search with 8 workers.
 ! ----------------------------------------------------------------------------
 !          Best Branches  Non-fixed    W       Branch decision
                        0        663                 -
 + New bound is 221
                        2        662    1   F     1 != _int191
 + New bound is 222
 *           661      662  0.11s        1      (gap is 66.41%)
             661     132k        544    1   F        -
 + New bound is 229 (gap is 65.36%)
             661     132k        544    1   F        -
 + New bound is 230 (gap is 65.20%)
             661     138k        661    2   F        -
 + New bound is 231 (gap is 65.05%)
             661     154k        660    4   F        -
 + New bound is 232 (gap is 64.90%)
             661     144k        583    7   F        -
 + New bound is 233 (gap is 64.75%)
             661     154k        661    2   F        -
 + New bound is 234 (gap is 64.60%)
             661     154k        661    2   F        -
 + New bound is 241 (gap is 63.54%)
             661     154k        661    2   F        -
 + New bound is 242 (gap is 63.39%)
             661     168k        660    4   F        -
 + New bound is 243 (gap is 63.24%)
             661     152k        661    7   F        -
 + New bound is 244 (gap is 63.09%)
             661     197k        113    1   F        -
 + New bound is 245 (gap is 62.93%)
             661     176k        661    7   F        -
 + New bound is 246 (gap is 62.78%)
             661     216k        661    1   F        -
 + New bound is 247 (gap is 62.63%)
             661     246k        138    2   F        -
 + New bound is 248 (gap is 62.48%)
             661     265k        661    2   F        -
 + New bound is 255 (gap is 61.42%)
             661     265k        661    2   F        -
 + New bound is 256 (gap is 61.27%)
             661     286k        141    4   F        -
 + New bound is 257 (gap is 61.12%)
 ! Time = 13.19s, Average fail depth = 135, Memory usage = 63.3 MB
 ! Current bound is 257 (gap is 61.12%)
 !          Best Branches  Non-fixed    W       Branch decision
             661     280k        119    1   F        -
 + New bound is 258 (gap is 60.97%)
             661     256k        500    7   F        -
 + New bound is 259 (gap is 60.82%)
             661     305k        661    1   F        -
 + New bound is 260 (gap is 60.67%)
             661     305k        660    4   F        -
 + New bound is 261 (gap is 60.51%)
             661     308k        644    1            -
 + New bound is 661 (gap is 0.00%)
 ! ----------------------------------------------------------------------------
 ! Search completed, 1 solution found.
 ! Best objective         : 661 (optimal - effective tol. is 0)
 ! Best bound             : 661
 ! ----------------------------------------------------------------------------
 ! Number of branches     : 2516680
 ! Number of fails        : 995220
 ! Total memory usage     : 76.0 MB (75.5 MB CP Optimizer + 0.5 MB Concert)
 ! Time spent in solve    : 14.45s (14.45s engine + 0.01s extraction)
 ! Search speed (br. / s) : 174285.3
 ! ----------------------------------------------------------------------------
! --------------------------------------------------------
! Best span = 661
! Labeling: 1 221 221 1 1 221 1 1 221 1 1 1 221 1 1 1 1 1 1 1 441 1 1 441 441 221 221 221 1 221 441 441 1 221 1 1 1 221 221 1 221 221 221 221 1 1 1 221 1 221 221 1 1 1 1 1 1 441 221 1 441 441 1 441 1 661 1 221 221 1 1 221 221 1 1 1 1 1 1 1 1 1 1 1 1 1 221 221 1 221 221 1 1 441 1 1 221 1 221 221 441 221 221 221 1 1 441 221 221 1 441 1 1 221 221 221 441 221 1 1 1 221 221 221 221 441 221 221 221 441 221 441 441 1 441 221 441 221 1 221 221 441 221 1 441 221 221 1 441 221 221 1 441 1 1 441 1 221 221 221 221 1 221 1 1 221 221 1 441 441 221 1 1 441 441 1 1 441 221 221 441 1 1 1 1 1 221 1 221 221 221 221 1 1 1 441 221 221 441 221 221 221 221 1 221 221 1 221 221 441 1 1 221 1 1 221 1 1 221 441 1 1 221 1 221 441 221 221 221 221 441 1 1 1 221 1 221 1 221 1 221 1 1 1 441 221 221 221 1 221 221 1 1 441 221 1 441 441 1 221 1 221 1 221 1 1 1 1 1 441 441 1 221 441 221 221 1 1 221 221 221 221 1 1 441 441 221 1 1 441 221 221 1 1 221 221 221 1 1 1 1 1 221 1 441 1 1 221 221 1 441 1 221 441 221 221 221 221 1 221 221 221 1 1 221 221 221 1 1 441 441 221 441 221 1 441 1 221 1 441 221 221 1 1 1 1 1 1 221 1 441 441 1 1 221 221 221 221 221 1 1 221 1 1 221 221 1 1 221 1 1 221 221 1 1 221 221 1 221 221 221 221 221 221 221 221 221 441 1 1 441 1 1 1 221 1 1 1 1 441 221 1 1 221 1 221 221 221 221 1 441 221 221 1 221 1 221 221 1 441 221 221 221 221 441 221 221 221 1 221 221 1 1 221 441 1 221 1 221 1 221 1 441 221 441 1 441 1 1 221 221 1 221 441 441 221 221 221 221 221 1 221 441 1 1 1 1 1 221 1 1 221 1 221 441 661 1 1 441 221 441 221 1 441 1 221 1 1 1 221 1 1 221 221 1 1 1 441 441 221 1 1 1 1 221 1 221 1 221 1 1 441 1 1 1 221 1 441 221 441 221 1 441 221 1 221 221 1 1 221 441 441 1 1 1 441 1 221 1 1 1 221 221 441 441 221 441 1 221 1 1 1 441 221 221 441 1 1 221 1 221 221 1 221 1 221 221 221 221 1 441 1 221 1 441 1 221 1 1 221 1 1 441 1 1 441 221 1 221 1 1 1 441 441 1 1 221 221 221 221 1 221 1 1 1 221 1 1 221 1 1 1 441 221 221 221 221 441 1 221 221 441 221 1 1 221 1 221 221 221 221 441 221 1 1 1 1 441 221 1 221 221 1 221 221 1 441 441 1 221 441 441 1 1 221 221 221 1 1 1 221 441 
! -------------------------------------------------------- 
